Version identifier: 22.1.1.0 | 2022-11-28 | 9160aff4d
CPXPARAM_ClockType                               1
CPXPARAM_Read_DataCheck                          1
CPXPARAM_Threads                                 1
CPXPARAM_TimeLimit                               7200
CPXPARAM_MIP_Tolerances_AbsMIPGap                0
CPXPARAM_MIP_Tolerances_MIPGap                   0
CPXPARAM_MIP_Tolerances_Integrality              0
Tried aggregator 2 times.
MIP Presolve eliminated 3523 rows and 1 columns.
MIP Presolve modified 3042 coefficients.
Aggregator did 1000 substitutions.
Reduced MIP has 5676 rows, 2999 columns, and 17414 nonzeros.
Reduced MIP has 2999 binaries, 0 generals, 0 SOSs, and 0 indicators.
Presolve time = 0.04 sec. (26.14 ticks)
Found incumbent of value -1828.000000 after 0.08 sec. (51.01 ticks)
Probing time = 0.02 sec. (6.22 ticks)
Tried aggregator 1 time.
Detecting symmetries...
MIP Presolve eliminated 202 rows and 4 columns.
MIP Presolve modified 2 coefficients.
Reduced MIP has 5474 rows, 2995 columns, and 16404 nonzeros.
Reduced MIP has 2995 binaries, 0 generals, 0 SOSs, and 0 indicators.
Presolve time = 0.03 sec. (18.72 ticks)
Probing time = 0.01 sec. (2.65 ticks)
Clique table members: 10511.
MIP emphasis: balance optimality and feasibility.
MIP search method: dynamic search.
Parallel mode: none, using 1 thread.
Root relaxation solution time = 0.31 sec. (244.32 ticks)

        Nodes                                         Cuts/
   Node  Left     Objective  IInf  Best Integer    Best Bound    ItCnt     Gap

*     0+    0                        -1820.0000      500.0000           127.47%
      0     0      200.0000   888    -1820.0000      200.0000     2161  110.99%
*     0+    0                          176.0000      200.0000            13.64%
*     0+    0                          186.0000      200.0000             7.53%
*     0+    0                          198.0000      200.0000             1.01%
Detecting symmetries...

Repeating presolve.
Tried aggregator 3 times.
MIP Presolve eliminated 1010 rows and 998 columns.
MIP Presolve modified 996 coefficients.
Aggregator did 5 substitutions.
Reduced MIP has 4459 rows, 1992 columns, and 11379 nonzeros.
Reduced MIP has 1992 binaries, 0 generals, 0 SOSs, and 0 indicators.
Presolve time = 0.03 sec. (18.98 ticks)
Probing time = 0.01 sec. (2.33 ticks)
Tried aggregator 1 time.
Detecting symmetries...
Reduced MIP has 4459 rows, 1992 columns, and 11379 nonzeros.
Reduced MIP has 1992 binaries, 0 generals, 0 SOSs, and 0 indicators.
Presolve time = 0.01 sec. (9.46 ticks)
Represolve time = 0.05 sec. (34.77 ticks)
Probing time = 0.01 sec. (2.33 ticks)
Clique table members: 3992.
MIP emphasis: balance optimality and feasibility.
MIP search method: dynamic search.
Parallel mode: none, using 1 thread.
Root relaxation solution time = 0.16 sec. (98.76 ticks)

        Nodes                                         Cuts/
   Node  Left     Objective  IInf  Best Integer    Best Bound    ItCnt     Gap

*     0+    0                          198.0000      200.0000             1.01%
      0     0      200.0000   843      198.0000      200.0000     3749    1.01%
*     0+    0                          200.0000      200.0000             0.00%
      0     0        cutoff            200.0000      200.0000     3749    0.00%
Elapsed time = 1.94 sec. (1291.35 ticks, tree = 0.01 MB, solutions = 6)

Root node processing (before b&c):
  Real time             =    1.94 sec. (1291.65 ticks)
Sequential b&c:
  Real time             =    0.00 sec. (0.00 ticks)
                          ------------
Total (root+branch&cut) =    1.94 sec. (1291.65 ticks)
Solution is feasible.

---------------------
@@@ MIP_optimal
>>> Benchmark sw100-6.cnf k 2 OPT 200 TimeCost 2.8041300773620605 TimeSolve 1.9719078540802002 TimeRead 0.008412599563598633 TimeTrans 0.8238096237182617
